p wcnf 27 82
-4 1 0
4 -1 0
-5 2 0
5 -2 0
-6 -4 -5 0
-6 4 5 0
6 4 -5 0
6 -4 5 0
-8 4 0
-8 5 0
8 -4 -5 0
8 -7 0
-8 7 0
-9 3 0
9 -3 0
-10 0
-11 -6 -9 0
-11 6 9 0
11 6 -9 0
11 -6 9 0
-14 6 0
-14 9 0
14 -6 -9 0
12 -7 -10 -14 0
12 -7 10 14 0
12 7 -10 14 0
12 7 10 -14 0
-12 7 10 14 0
-12 7 -10 -14 0
-12 -7 10 -14 0
-12 -7 -10 14 0
15 -7 -10 0
15 -7 -14 0
15 -10 -14 0
-15 7 9 0
-15 7 14 0
-15 10 14 0
15 -13 0
-15 13 0
-11 -12 0
-13 0
-16 -1 0
16 1 0
-17 -2 0
17 2 0
-18 -16 -17 0
-18 16 17 0
18 16 -17 0
18 -16 17 0
-20 16 0
-20 17 0
20 -16 -17 0
20 -19 0
-20 19 0
-21 -3 0
21 3 0
-22 0
-23 -18 -21 0
-23 18 21 0
23 18 -21 0
23 -18 21 0
-26 18 0
-26 21 0
26 -18 -21 0
24 -19 -22 -26 0
24 -19 22 26 0
24 19 -22 26 0
24 19 22 -26 0
-24 19 22 26 0
-24 19 -22 -26 0
-24 -19 22 -26 0
-24 -19 -22 26 0
27 -19 -22 0
27 -19 -26 0
27 -22 -26 0
-27 19 21 0
-27 19 26 0
-27 22 26 0
27 -25 0
-27 25 0
-24 0
-25 0
w 1 0.7
w -1 0.3
w 2 0.4
w -2 0.6
w 3 1
w -3 0
w 4 1
w -4 1
w 5 1
w -5 1
w 6 1
w -6 1
w 7 1
w -7 1
w 8 1
w -8 1
w 9 1
w -9 1
w 10 1
w -10 1
w 11 1
w -11 1
w 12 1
w -12 1
w 13 1
w -13 1
w 14 1
w -14 1
w 15 1
w -15 1
w 16 1
w -16 1
w 17 1
w -17 1
w 18 1
w -18 1
w 19 1
w -19 1
w 20 1
w -20 1
w 21 1
w -21 1
w 22 1
w -22 1
w 23 1
w -23 1
w 24 1
w -24 1
w 25 1
w -25 1
w 26 1
w -26 1
w 27 1
w -27 1
